c CNF Example
c 4 variables, 6 clauses
c each clause is terminated by '0' (not by the end of line)
c F = (x1 + x3' + x4).(x1' + x2 + x3’).(x1 + x3 + x4).(x1 + x3' + x4’).(x1’ + x2' + x3).(x1 + x3' + x4') 
c W = (2, 4, 1, 2)
w 2 4 1 2
p cnf 4 6
1 -3 4 0
-1 2 -3 0
1 3 4 0
1 -3 -4 0
-1 -2 3 0
1 -3 4 0